objective value:                                    7
lambda[0,26]*                                       1 	(obj:7)
lambda[1,27]*                                       3 	(obj:0)
lambda[0,35]*                                       3 	(obj:0)
lambda[0,38]*                                       2 	(obj:0)
lambda[0,39]*                                       4 	(obj:0)
lambda[1,41]*                                       2 	(obj:0)
lambda[1,42]*                                       5 	(obj:0)
